
Gurobi 10.0.1 (linux64) logging started Sun Nov 26 15:37:34 2023

Set parameter LogFile to value "ArtificialInstance/ExperimentV2/S4T5K1/AdSp/gurobiDoSp1.txt"
Gurobi Optimizer version 10.0.1 build v10.0.1rc0 (linux64)

CPU model: AMD EPYC 7H12 64-Core Processor, instruction set [SSE2|AVX|AVX2]
Thread count: 128 physical cores, 128 logical processors, using up to 32 threads

Academic license 656792 - for non-commercial use only - registered to b.___@student.vu.nl
Optimize a model with 5655 rows, 5205 columns and 19893 nonzeros
Model fingerprint: 0xbbf083cb
Variable types: 0 continuous, 5205 integer (5205 binary)
Coefficient statistics:
  Matrix range     [1e+00, 1e+00]
  Objective range  [9e-01, 2e+01]
  Bounds range     [1e+00, 1e+00]
  RHS range        [1e+00, 1e+00]
Presolve removed 4709 rows and 4330 columns
Presolve time: 0.09s
Presolved: 946 rows, 875 columns, 3486 nonzeros
Variable types: 0 continuous, 875 integer (875 binary)
Found heuristic solution: objective 139.6926970

Root relaxation: objective 6.454044e+01, 149 iterations, 0.00 seconds (0.00 work units)

    Nodes    |    Current Node    |     Objective Bounds      |     Work
 Expl Unexpl |  Obj  Depth IntInf | Incumbent    BestBd   Gap | It/Node Time

*    0     0               0      64.5404373   64.54044  0.00%     -    0s

Explored 1 nodes (149 simplex iterations) in 0.10 seconds (0.07 work units)
Thread count was 32 (of 128 available processors)

Solution count 2: 64.5404 139.693 

Optimal solution found (tolerance 1.00e-04)
Best objective 6.454043731576e+01, best bound 6.454043731576e+01, gap 0.0000%
